# Solution for model GasLib-40
# Objective value = 1.0564979071936882e+01
loadshed[innode_1] 0
loadshed[innode_2] 0
loadshed[innode_3] 0
loadshed[innode_4] 0
loadshed[innode_5] 0
loadshed[innode_6] 0
loadshed[innode_7] 0
loadshed[innode_8] 0
loadshed[source_1] -2.5229143396153342e-01
loadshed[source_2] 1.3642107935241687e-01
loadshed[source_3] 1.8269912624784324e-01
loadshed[sink_1] 0
loadshed[sink_2] 0
loadshed[sink_3] 0
loadshed[sink_4] 0
loadshed[sink_5] 0
loadshed[sink_6] 0
loadshed[sink_7] 0
loadshed[sink_8] 0
loadshed[sink_9] 0
loadshed[sink_10] 0
loadshed[sink_11] 0
loadshed[sink_12] 6.4601145917575842e-01
loadshed[sink_13] 0
loadshed[sink_14] 0
loadshed[sink_15] 0
loadshed[sink_16] 0
loadshed[sink_17] 0
loadshed[sink_18] 0
loadshed[sink_19] 0
loadshed[sink_20] 0
loadshed[sink_21] 0
loadshed[sink_22] 0
loadshed[sink_23] 0
loadshed[sink_24] 0
loadshed[sink_25] 0
loadshed[sink_26] 0
loadshed[sink_27] 0
loadshed[sink_28] 0
loadshed[sink_29] 0
flow[source_1,sink_3] 1.9797510065371046e+02
flow[innode_1,sink_16] 1.6354166666666970e+01
flow[innode_6,sink_13] -1.4728155492832023e+01
flow[sink_13,sink_14] -3.1082322159498691e+01
flow[sink_14,sink_10] -4.7436488826165359e+01
flow[sink_25,sink_26] 1.5176486128709519e+02
flow[sink_26,sink_9] 1.3541069462042822e+02
flow[sink_9,sink_18] 1.1905652795376155e+02
flow[sink_26,sink_4] 0
flow[sink_4,sink_20] -5.0274326307634624e+01
flow[sink_18,sink_6] 1.0270236128709487e+02
flow[sink_25,innode_8] -1.6526676732037410e+02
flow[sink_6,sink_7] 5.3639861287094845e+01
flow[sink_6,sink_22] 3.2708333333333641e+01
flow[sink_7,sink_24] 3.8497520928063118e+01
flow[sink_22,sink_1] 1.6354166666666970e+01
flow[sink_24,sink_21] 2.2143354261396453e+01
flow[sink_21,sink_12] 5.7891875947297846e+00
flow[sink_7,sink_5] -1.2118263076345670e+00
flow[sink_5,sink_17] -1.7565992974301366e+01
flow[sink_17,sink_4] -3.3920159640968038e+01
flow[sink_17,sink_8] 0
flow[sink_3,sink_23] 16.3541666666697
flow[sink_8,sink_20] -1.6354166666668334e+01
flow[sink_25,sink_20] 8.2982659640969715e+01
flow[sink_25,sink_15] -7.1106764781525115e+01
flow[sink_15,sink_29] -1.0381509811487604e+02
flow[sink_29,sink_28] 1.6354166666667879e+01
flow[sink_29,sink_2] 0
flow[sink_2,sink_15] -1.6354166666684250e+01
flow[sink_29,innode_7] -1.3652343144820992e+02
flow[innode_4,sink_19] 5.0501775179713938e+01
flow[sink_19,innode_3] 4.7091099225158452e+01
flow[innode_4,innode_5] 7.8705546979785012e+01
flow[sink_27,innode_5] -7.8705546979785012e+01
flow[sink_27,sink_19] 6.2351380313118341e+01
flow[sink_10,sink_11] 3.2708333333333641e+01
flow[sink_10,innode_2] -4.9407889601007213e+01
flow[sink_10,innode_3] -4.7091099225158452e+01
flow[innode_6,sink_25] 1.4728155492832023e+01
flow[sink_11,innode_1] 1.6354166666666970e+01
flow[sink_19,innode_2] 4.9407889601007213e+01
flow[source_3,innode_4] 1.2920732215949894e+02
flow[source_2,innode_7] 1.3652343144820992e+02
flow[sink_3,innode_8] 1.6526676732037410e+02
pressure[innode_1] 7.6204182073929147e+01
pressure[innode_2] 7.8967294408213220e+01
pressure[innode_3] 7.8863016501467627e+01
pressure[innode_4] 81.01325
pressure[innode_5] 8.0959112174630960e+01
pressure[innode_6] 7.3975385744749673e+01
pressure[innode_7] 81.01325
pressure[innode_8] 8.0351494867744350e+01
pressure[source_1] 81.01325
pressure[source_2] 81.01325
pressure[source_3] 81.01325
pressure[sink_1] 4.6030639659729673e+01
pressure[sink_2] 74.2669300921578
pressure[sink_3] 8.0351494867744350e+01
pressure[sink_4] 5.0504215076722666e+01
pressure[sink_5] 4.7899358917572549e+01
pressure[sink_6] 4.8131717270117043e+01
pressure[sink_7] 4.7395369832723055e+01
pressure[sink_8] 5.3052917993921639e+01
pressure[sink_9] 5.5181996132444972e+01
pressure[sink_10] 7.6355883381532692e+01
pressure[sink_11] 7.6204182073929147e+01
pressure[sink_12] 1.0132499999999998e+00
pressure[sink_13] 7.4056579604678220e+01
pressure[sink_14] 7.4112204067811064e+01
pressure[sink_15] 7.4320322841924252e+01
pressure[sink_16] 7.5182532239111467e+01
pressure[sink_17] 49.2078984235139
pressure[sink_18] 50.8741761015973
pressure[sink_19] 7.8967294408213220e+01
pressure[sink_20] 5.4192573417509927e+01
pressure[sink_21] 3.0733597896760907e+00
pressure[sink_22] 4.7094408802084686e+01
pressure[sink_23] 8.0186776856084563e+01
pressure[sink_24] 3.3185768644912885e+00
pressure[sink_25] 7.3975385744749673e+01
pressure[sink_26] 6.3286675690860008e+01
pressure[sink_27] 80.3060015669121
pressure[sink_28] 7.7066500765071439e+01
pressure[sink_29] 7.7361783038688614e+01
interdiction[source_1,sink_3] 0
interdiction[innode_1,sink_16] 0
interdiction[innode_6,sink_13] 0
interdiction[sink_13,sink_14] 0
interdiction[sink_14,sink_10] 0
interdiction[sink_25,sink_26] 0
interdiction[sink_26,sink_9] 0
interdiction[sink_9,sink_18] 0
interdiction[sink_26,sink_4] 1
interdiction[sink_4,sink_20] 0
interdiction[sink_18,sink_6] 0
interdiction[sink_25,innode_8] 0
interdiction[sink_6,sink_7] 0
interdiction[sink_6,sink_22] 0
interdiction[sink_7,sink_24] 0
interdiction[sink_22,sink_1] 0
interdiction[sink_24,sink_21] 0
interdiction[sink_21,sink_12] 0
interdiction[sink_7,sink_5] 0
interdiction[sink_5,sink_17] 0
interdiction[sink_17,sink_4] 0
interdiction[sink_17,sink_8] 1
interdiction[sink_3,sink_23] 0
interdiction[sink_8,sink_20] 0
interdiction[sink_25,sink_20] 0
interdiction[sink_25,sink_15] 0
interdiction[sink_15,sink_29] 0
interdiction[sink_29,sink_28] 0
interdiction[sink_29,sink_2] 1
interdiction[sink_2,sink_15] 0
interdiction[sink_29,innode_7] 0
interdiction[innode_4,sink_19] 0
interdiction[sink_19,innode_3] 0
interdiction[innode_4,innode_5] 0
interdiction[sink_27,innode_5] 0
interdiction[sink_27,sink_19] 0
interdiction[sink_10,sink_11] 0
interdiction[sink_10,innode_2] 0
interdiction[sink_10,innode_3] 0
interdiction[innode_6,sink_25] 0
interdiction[sink_11,innode_1] 0
interdiction[sink_19,innode_2] 0
interdiction[source_3,innode_4] 0
interdiction[source_2,innode_7] 0
interdiction[sink_3,innode_8] 0
WCcheckFlow[source_1,sink_3] 39
WCcheckFlow[innode_1,sink_16] 1
WCcheckFlow[innode_6,sink_13] 13
WCcheckFlow[sink_13,sink_14] 12
WCcheckFlow[sink_14,sink_10] 11
WCcheckFlow[sink_25,sink_26] 15
WCcheckFlow[sink_26,sink_9] 14
WCcheckFlow[sink_9,sink_18] 13
WCcheckFlow[sink_26,sink_4] 0
WCcheckFlow[sink_4,sink_20] 2
WCcheckFlow[sink_18,sink_6] 12
WCcheckFlow[sink_25,innode_8] -36
WCcheckFlow[sink_6,sink_7] 9
WCcheckFlow[sink_6,sink_22] 2
WCcheckFlow[sink_7,sink_24] 3
WCcheckFlow[sink_22,sink_1] 1
WCcheckFlow[sink_24,sink_21] 2
WCcheckFlow[sink_21,sink_12] 1
WCcheckFlow[sink_7,sink_5] 5
WCcheckFlow[sink_5,sink_17] 4
WCcheckFlow[sink_17,sink_4] 3
WCcheckFlow[sink_17,sink_8] 0
WCcheckFlow[sink_3,sink_23] 1
WCcheckFlow[sink_8,sink_20] -1
WCcheckFlow[sink_25,sink_20] 0
WCcheckFlow[sink_25,sink_15] 6
WCcheckFlow[sink_15,sink_29] 4
WCcheckFlow[sink_29,sink_28] 1
WCcheckFlow[sink_29,sink_2] 0
WCcheckFlow[sink_2,sink_15] -1
WCcheckFlow[sink_29,innode_7] 2
WCcheckFlow[innode_4,sink_19] -4
WCcheckFlow[sink_19,innode_3] -5
WCcheckFlow[innode_4,innode_5] 2
WCcheckFlow[sink_27,innode_5] -1
WCcheckFlow[sink_27,sink_19] 0
WCcheckFlow[sink_10,sink_11] 3
WCcheckFlow[sink_10,innode_2] 1
WCcheckFlow[sink_10,innode_3] 6
WCcheckFlow[innode_6,sink_25] -14
WCcheckFlow[sink_11,innode_1] 2
WCcheckFlow[sink_19,innode_2] 0
WCcheckFlow[source_3,innode_4] -1
WCcheckFlow[source_2,innode_7] -1
WCcheckFlow[sink_3,innode_8] 37
